Route #1: 26 72 31 10 58 7 35 8 46 34 67
Route #2: 38 65 66 11 53 14 59 19 54
Route #3: 52 13 57 15 37 20 70 60 71 36 69 61 21 47 5
Route #4: 27 45 29 48 30 2 74 28 62 73 33
Route #5: 17 40 44 32 50 18 55 25 9 39 12
Route #6: 3 24 49 23 56 41 43 42 64 22 1 63 16 51
Route #7: 6 68 4 75
Cost 733